Route #1: 2 48 38 9 16 34 32 19 15 49
Route #2: 26 13 46 17 22 50 12 45 4
Route #3: 23 21 14 39 24 31 11 28 3
Route #4: 41 25 36 6 44 10 47 37
Route #5: 40 42 20 18 30 1
Route #6: 29 27 8 5 51
Route #7: 35 33 7 43
Cost 762